
Gurobi 13.0.1 (mac64[arm], gurobi_cl) logging started Mon Mar  9 10:49:11 2026

Set parameter LogFile to value "gurobi.log"
Using license file /Users/savato/miniconda/envs/o4ds/lib/gurobi.lic
Restricted license - for non-production use only - expires 2027-11-29
